64	15.0	96.0	15765928
64	20.0	258.0	15003387
64	25.0	330.0	14653301
64	30.0	354.0	14366628
64	35.0	426.0	14078131
64	40.0	456.0	13783894
64	45.0	480.0	13541641
64	50.0	504.0	13343690
64	55.0	552.0	13182690
64	60.0	552.0	13060721
64	65.0	594.0	13001052
64	70.0	612.0	12935107
64	75.0	624.0	12897573
64	80.0	660.0	12856262
